db/data/4507306972673532590386010494734210707.z3.out
sat
-------------------
18.100443765
